14° run output:
{
    "Function": "kroA400.tsp",
    "Problem dimension": [
        280,
        96,
        79,
        129,
        145,
        340,
        200,
        123,
        386,
        203,
        196,
        48,
        312,
        382,
        91,
        327,
        287,
        115,
        391,
        109,
        308,
        291,
        297,
        276,
        288,
        201,
        194,
        313,
        71,
        177,
        132,
        219,
        166,
        61,
        275,
        355,
        241,
        378,
        176,
        175,
        368,
        53,
        159,
        256,
        26,
        270,
        78,
        23,
        284,
        341,
        3,
        359,
        315,
        6,
        235,
        339,
        278,
        179,
        155,
        353,
        80,
        282,
        252,
        286,
        375,
        202,
        169,
        193,
        373,
        377,
        259,
        98,
        303,
        66,
        397,
        393,
        31,
        319,
        199,
        147,
        304,
        231,
        268,
        172,
        265,
        215,
        332,
        51,
        110,
        10,
        125,
        92,
        165,
        258,
        263,
        112,
        358,
        59,
        247,
        365,
        290,
        299,
        184,
        267,
        238,
        253,
        70,
        182,
        116,
        114,
        367,
        260,
        255,
        34,
        317,
        237,
        28,
        183,
        328,
        69,
        18,
        384,
        234,
        68,
        88,
        283,
        146,
        395,
        190,
        399,
        206,
        198,
        25,
        392,
        52,
        122,
        322,
        307,
        294,
        195,
        4,
        372,
        111,
        348,
        309,
        46,
        21,
        127,
        124,
        82,
        334,
        232,
        306,
        218,
        106,
        156,
        347,
        76,
        300,
        364,
        16,
        7,
        224,
        89,
        381,
        352,
        376,
        20,
        233,
        370,
        379,
        324,
        204,
        13,
        269,
        5,
        85,
        354,
        257,
        390,
        316,
        279,
        150,
        264,
        189,
        65,
        356,
        369,
        380,
        197,
        42,
        37,
        293,
        99,
        117,
        121,
        131,
        11,
        105,
        107,
        27,
        29,
        387,
        162,
        249,
        326,
        170,
        126,
        101,
        318,
        266,
        83,
        135,
        295,
        151,
        336,
        323,
        314,
        94,
        90,
        138,
        12,
        246,
        383,
        137,
        273,
        296,
        41,
        24,
        100,
        9,
        346,
        289,
        44,
        47,
        207,
        335,
        45,
        142,
        374,
        140,
        350,
        102,
        228,
        248,
        245,
        50,
        15,
        35,
        141,
        152,
        361,
        55,
        338,
        167,
        2,
        357,
        93,
        75,
        217,
        223,
        63,
        342,
        388,
        139,
        174,
        220,
        149,
        104,
        227,
        301,
        38,
        87,
        185,
        250,
        351,
        221,
        222,
        371,
        158,
        337,
        302,
        239,
        54,
        161,
        192,
        229,
        211,
        17,
        164,
        398,
        119,
        396,
        205,
        130,
        214,
        240,
        311,
        226,
        67,
        330,
        305,
        362,
        136,
        209,
        349,
        333,
        321,
        86,
        225,
        181,
        363,
        39,
        385,
        360,
        389,
        168,
        180,
        292,
        8,
        60,
        331,
        344,
        160,
        0,
        236,
        97,
        30,
        343,
        118,
        178,
        62,
        22,
        95,
        212,
        43,
        187,
        36,
        77,
        81,
        163,
        58,
        191,
        271,
        277,
        134,
        325,
        173,
        272,
        366,
        144,
        171,
        262,
        186,
        74,
        133,
        108,
        274,
        188,
        72,
        213,
        113,
        208,
        345,
        1,
        298,
        243,
        244,
        254,
        394,
        33,
        281,
        216,
        49,
        153,
        40,
        261,
        285,
        120,
        230,
        19,
        157,
        143,
        57,
        73,
        56,
        310,
        242,
        251,
        32,
        148,
        84,
        320,
        64,
        210,
        128,
        154,
        329,
        14,
        103
    ],
    "Global Optimum": 0,
    "Algorithm": "Genetic algorithm",
    "Parameters": {
        "population": 30,
        "offspring": 30,
        "mutation probability": 0.0025,
        "crossover probability": 0.9
    },
    "Fitness": 392045,
    "Solution": [
        280,
        96,
        79,
        129,
        145,
        340,
        200,
        123,
        386,
        203,
        196,
        48,
        312,
        382,
        91,
        327,
        287,
        115,
        391,
        109,
        308,
        291,
        297,
        276,
        288,
        201,
        194,
        313,
        71,
        177,
        132,
        219,
        166,
        61,
        275,
        355,
        241,
        378,
        176,
        175,
        368,
        53,
        159,
        256,
        26,
        270,
        78,
        23,
        284,
        341,
        3,
        359,
        315,
        6,
        235,
        339,
        278,
        179,
        155,
        353,
        80,
        282,
        252,
        286,
        375,
        202,
        169,
        193,
        373,
        377,
        259,
        98,
        303,
        66,
        397,
        393,
        31,
        319,
        199,
        147,
        304,
        231,
        268,
        172,
        265,
        215,
        332,
        51,
        110,
        10,
        125,
        92,
        165,
        258,
        263,
        112,
        358,
        59,
        247,
        365,
        290,
        299,
        184,
        267,
        238,
        253,
        70,
        182,
        116,
        114,
        367,
        260,
        255,
        34,
        317,
        237,
        28,
        183,
        328,
        69,
        18,
        384,
        234,
        68,
        88,
        283,
        146,
        395,
        190,
        399,
        206,
        198,
        25,
        392,
        52,
        122,
        322,
        307,
        294,
        195,
        4,
        372,
        111,
        348,
        309,
        46,
        21,
        127,
        124,
        82,
        334,
        232,
        306,
        218,
        106,
        156,
        347,
        76,
        300,
        364,
        16,
        7,
        224,
        89,
        381,
        352,
        376,
        20,
        233,
        370,
        379,
        324,
        204,
        13,
        269,
        5,
        85,
        354,
        257,
        390,
        316,
        279,
        150,
        264,
        189,
        65,
        356,
        369,
        380,
        197,
        42,
        37,
        293,
        99,
        117,
        121,
        131,
        11,
        105,
        107,
        27,
        29,
        387,
        162,
        249,
        326,
        170,
        126,
        101,
        318,
        266,
        83,
        135,
        295,
        151,
        336,
        323,
        314,
        94,
        90,
        138,
        12,
        246,
        383,
        137,
        273,
        296,
        41,
        24,
        100,
        9,
        346,
        289,
        44,
        47,
        207,
        335,
        45,
        142,
        374,
        140,
        350,
        102,
        228,
        248,
        245,
        50,
        15,
        35,
        141,
        152,
        361,
        55,
        338,
        167,
        2,
        357,
        93,
        75,
        217,
        223,
        63,
        342,
        388,
        139,
        174,
        220,
        149,
        104,
        227,
        301,
        38,
        87,
        185,
        250,
        351,
        221,
        222,
        371,
        158,
        337,
        302,
        239,
        54,
        161,
        192,
        229,
        211,
        17,
        164,
        398,
        119,
        396,
        205,
        130,
        214,
        240,
        311,
        226,
        67,
        330,
        305,
        362,
        136,
        209,
        349,
        333,
        321,
        86,
        225,
        181,
        363,
        39,
        385,
        360,
        389,
        168,
        180,
        292,
        8,
        60,
        331,
        344,
        160,
        0,
        236,
        97,
        30,
        343,
        118,
        178,
        62,
        22,
        95,
        212,
        43,
        187,
        36,
        77,
        81,
        163,
        58,
        191,
        271,
        277,
        134,
        325,
        173,
        272,
        366,
        144,
        171,
        262,
        186,
        74,
        133,
        108,
        274,
        188,
        72,
        213,
        113,
        208,
        345,
        1,
        298,
        243,
        244,
        254,
        394,
        33,
        281,
        216,
        49,
        153,
        40,
        261,
        285,
        120,
        230,
        19,
        157,
        143,
        57,
        73,
        56,
        310,
        242,
        251,
        32,
        148,
        84,
        320,
        64,
        210,
        128,
        154,
        329,
        14,
        103
    ],
    "Nb of functions evaluations": 400020,
    "Computational time in seconds": 1155.2676355838776,
    "Stopping criterion in evaluations": 400000
}